(set-logic QF_LRA)
(declare-fun x1 () Real)
(declare-fun x2 () Real)
(declare-fun x3 () Real)
(declare-fun x4 () Real)
(declare-fun x5 () Real)
(declare-fun x6 () Real)
(declare-fun x7 () Real)
(declare-fun x8 () Real)
(declare-fun x9 () Real)
(declare-fun x10 () Real)

(assert (>= (- -9 ( + ( + (* -3 x3) (* -6 x1) ) (* -9 x2) )) 0))
(assert (>= (- 0 ( + ( + (* 9 x3) (* 9 x1) ) (* -10 x4) )) 0))
(assert (>= (- -2 ( + ( + (* 7 x4) (* 6 x3) ) (* 5 x5) )) 0))
(assert (>= (- 5 ( + ( + (* -5 x1) (* -9 x4) ) (* 10 x6) )) 0))
(assert (>= (- 8 ( + ( + (* -8 x4) x6 ) (* -1 x7) )) 0))
(assert (>= (- -7 ( + ( + (* 4 x8) (* -6 x4) ) (* 4 x5) )) 0))
(assert (>= (- -1 ( + ( + (* 3 x9) (* 3 x4) ) x8 )) 0))
(assert (>= (- -5 ( + ( + (* 7 x8) (* -2 x9) ) (* 9 x10) )) 0))
(assert (>= (- -6 ( + ( + (* -8 x8) (* -1 x4) ) (* 6 x5) )) 0))
(assert (>= (- -5 (* 8 x5)) 0))
(assert (>= (- 1 ( + ( + (* 2 x1) (* -2 x2) ) (* -2 x3) )) 0))
(assert (>= (- 1 ( + ( + (* -10 x5) (* -6 x3) ) (* -8 x4) )) 0))
(assert (>= (- 9 (* 4 x1)) 0))
(assert (>= (- 10 ( + ( + (* 3 x9) (* 3 x4) ) (* -9 x8) )) 0))
(assert (>= (- -9 (* 9 x4)) 0))
(assert (>= (- -10 ( + ( + (* -7 x3) (* -1 x1) ) (* -1 x4) )) 0))
(assert (>= (- -3 ( + ( + (* 9 x2) (* -6 x1) ) (* 10 x3) )) 0))
(assert (>= (- -6 ( + (* -10 x9) (* -1 x10) )) 0))
(assert (>= (- 3 (* -1 x8)) 0))
(assert (>= (- 2 ( + (* 4 x5) (* 4 x4) )) 0))
(check-sat)
(exit)